Events = 15;
Periods = 20;
Rooms = 8;
RoomedEvent = [1, 0, 1, 0, 1, 0, 1, 1, 1, 1, 1, 1, 1, 1, 0];
Conflicts = [|0, -1, -1, -1, -1, -1, -1, -1, 0, 0, -1, -1, -1, -1, -1
    |-1, 0, -1, -1, -1, -1, -1, -1, 0, 0, -1, -1, -1, -1, -1
    |-1, -1, 0, -1, -1, -1, -1, -1, 0, 0, -1, -1, -1, -1, -1
    |-1, -1, -1, 0, -1, -1, -1, -1, 0, 0, -1, -1, -1, -1, -1
    |-1, -1, -1, -1, 0, -1, -1, -1, 0, 0, -1, -1, -1, -1, -1
    |-1, -1, -1, -1, -1, 0, -1, -1, 0, 0, -1, -1, -1, -1, -1
    |-1, -1, -1, -1, -1, -1, 0, -1, 0, 0, 5, 5, 5, 5, 5
    |-1, -1, -1, -1, -1, -1, -1, 0, 0, 0, 5, 5, 5, 5, 5
    |0, 0, 0, 0, 0, 0, 0, 0, 0, -1, 0, 0, 0, 0, 0
    |0, 0, 0, 0, 0, 0, 0, 0, -1, 0, 0, 0, 0, 0, 0
    |-1, -1, -1, -1, -1, -1, 5, 5, 0, 0, 0, -1, -1, -1, 5
    |-1, -1, -1, -1, -1, -1, 5, 5, 0, 0, -1, 0, -1, -1, 5
    |-1, -1, -1, -1, -1, -1, 5, 5, 0, 0, -1, -1, 0, -1, 5
    |-1, -1, -1, -1, -1, -1, 5, 5, 0, 0, -1, -1, -1, 0, 5
    |-1, -1, -1, -1, -1, -1, 5, 5, 0, 0, 5, 5, 5, 5, 0|];
DistanceWeight = [|0, 15, 12, 0, 12, 0, 2, 2, 0, 0, 2, 0, 2, 0, 2
    |15, 0, 0, 0, 0, 0, 0, 0, 0, 0, 0, 0, 0, 0, 0
    |12, 0, 0, 15, 12, 0, 2, 2, 0, 0, 2, 0, 2, 0, 2
    |0, 0, 15, 0, 0, 0, 0, 0, 0, 0, 0, 0, 0, 0, 0
    |12, 0, 12, 0, 0, 15, 2, 2, 0, 0, 2, 0, 2, 0, 2
    |0, 0, 0, 0, 15, 0, 0, 0, 0, 0, 0, 0, 0, 0, 0
    |2, 0, 2, 0, 2, 0, 0, 12, 0, 0, 2, 0, 2, 0, 2
    |2, 0, 2, 0, 2, 0, 12, 0, 0, 0, 2, 0, 2, 0, 2
    |0, 0, 0, 0, 0, 0, 0, 0, 0, 12, 0, 0, 0, 0, 0
    |0, 0, 0, 0, 0, 0, 0, 0, 12, 0, 0, 0, 0, 0, 0
    |2, 0, 2, 0, 2, 0, 2, 2, 0, 0, 0, 15, 12, 0, 2
    |0, 0, 0, 0, 0, 0, 0, 0, 0, 0, 15, 0, 0, 0, 0
    |2, 0, 2, 0, 2, 0, 2, 2, 0, 0, 12, 0, 0, 15, 2
    |0, 0, 0, 0, 0, 0, 0, 0, 0, 0, 0, 0, 15, 0, 0
    |2, 0, 2, 0, 2, 0, 2, 2, 0, 0, 2, 0, 2, 0, 0|];
MinDistance = [|0, 4, 5, 5, 5, 5, 6, 6, 0, 0, 6, 6, 6, 6, 2
    |0, 0, 5, 5, 5, 5, 6, 6, 0, 0, 6, 6, 6, 6, 2
    |0, 0, 0, 4, 5, 5, 6, 6, 0, 0, 6, 6, 6, 6, 2
    |0, 0, 0, 0, 5, 5, 6, 6, 0, 0, 6, 6, 6, 6, 2
    |0, 0, 0, 0, 0, 4, 6, 6, 0, 0, 6, 6, 6, 6, 2
    |0, 0, 0, 0, 0, 0, 6, 6, 0, 0, 6, 6, 6, 6, 2
    |6, 6, 6, 6, 6, 6, 0, 5, 0, 0, 2, 2, 2, 2, 2
    |6, 6, 6, 6, 6, 6, 0, 0, 0, 0, 2, 2, 2, 2, 2
    |0, 0, 0, 0, 0, 0, 0, 0, 0, 4, 0, 0, 0, 0, 0
    |0, 0, 0, 0, 0, 0, 0, 0, 0, 0, 0, 0, 0, 0, 0
    |6, 6, 6, 6, 6, 6, 2, 2, 0, 0, 0, 1, 4, 4, 2
    |6, 6, 6, 6, 6, 6, 2, 2, 0, 0, 0, 0, 4, 4, 2
    |6, 6, 6, 6, 6, 6, 2, 2, 0, 0, 0, 0, 0, 1, 2
    |6, 6, 6, 6, 6, 6, 2, 2, 0, 0, 0, 0, 0, 0, 2
    |2, 2, 2, 2, 2, 2, 2, 2, 0, 0, 2, 2, 2, 2, 0|];
MaxDistance = [|20, 8, 20, 20, 20, 20, 20, 20, 20, 20, 20, 20, 20, 20, 20
    |20, 20, 20, 20, 20, 20, 20, 20, 20, 20, 20, 20, 20, 20, 20
    |20, 20, 20, 8, 20, 20, 20, 20, 20, 20, 20, 20, 20, 20, 20
    |20, 20, 20, 20, 20, 20, 20, 20, 20, 20, 20, 20, 20, 20, 20
    |20, 20, 20, 20, 20, 8, 20, 20, 20, 20, 20, 20, 20, 20, 20
    |20, 20, 20, 20, 20, 20, 20, 20, 20, 20, 20, 20, 20, 20, 20
    |20, 20, 20, 20, 20, 20, 20, 20, 20, 20, 20, 20, 20, 20, 20
    |20, 20, 20, 20, 20, 20, 20, 20, 20, 20, 20, 20, 20, 20, 20
    |20, 20, 20, 20, 20, 20, 20, 20, 20, 20, 20, 20, 20, 20, 20
    |20, 20, 20, 20, 20, 20, 20, 20, 20, 20, 20, 20, 20, 20, 20
    |20, 20, 20, 20, 20, 20, 20, 20, 20, 20, 20, 1, 20, 20, 20
    |20, 20, 20, 20, 20, 20, 20, 20, 20, 20, 20, 20, 20, 20, 20
    |20, 20, 20, 20, 20, 20, 20, 20, 20, 20, 20, 20, 20, 1, 20
    |20, 20, 20, 20, 20, 20, 20, 20, 20, 20, 20, 20, 20, 20, 20
    |20, 20, 20, 20, 20, 20, 20, 20, 20, 20, 20, 20, 20, 20, 20|];
Precedence = [|0, 1, 1, 1, 1, 1, 0, 0, 0, 0, 0, 0, 0, 0, 0
    |0, 0, 1, 1, 1, 1, 0, 0, 0, 0, 0, 0, 0, 0, 0
    |0, 0, 0, 1, 1, 1, 0, 0, 0, 0, 0, 0, 0, 0, 0
    |0, 0, 0, 0, 1, 1, 0, 0, 0, 0, 0, 0, 0, 0, 0
    |0, 0, 0, 0, 0, 1, 0, 0, 0, 0, 0, 0, 0, 0, 0
    |0, 0, 0, 0, 0, 0, 0, 0, 0, 0, 0, 0, 0, 0, 0
    |0, 0, 0, 0, 0, 0, 0, 1, 0, 0, 0, 0, 0, 0, 0
    |0, 0, 0, 0, 0, 0, 0, 0, 0, 0, 0, 0, 0, 0, 0
    |0, 0, 0, 0, 0, 0, 0, 0, 0, 1, 0, 0, 0, 0, 0
    |0, 0, 0, 0, 0, 0, 0, 0, 0, 0, 0, 0, 0, 0, 0
    |0, 0, 0, 0, 0, 0, 0, 0, 0, 0, 0, 1, 1, 1, 0
    |0, 0, 0, 0, 0, 0, 0, 0, 0, 0, 0, 0, 1, 1, 0
    |0, 0, 0, 0, 0, 0, 0, 0, 0, 0, 0, 0, 0, 1, 0
    |0, 0, 0, 0, 0, 0, 0, 0, 0, 0, 0, 0, 0, 0, 0
    |0, 0, 0, 0, 0, 0, 0, 0, 0, 0, 0, 0, 0, 0, 0|];
EventPeriodConstraints = [|-1, 0, 0, 0, -1, 0, 0, 0, 0, -1, 0, 0, 0, 0, 0, 0, 0, 0, 0, 0
    |-1, 0, 0, 0, -1, 0, 0, 0, 0, 10, 0, 0, 0, 0, 0, 0, 0, 0, 0, 0
    |-1, 0, 0, 0, -1, 0, 0, 0, 0, 10, 0, 0, 0, 0, 0, 0, 0, 0, 0, 0
    |-1, 0, 0, 0, -1, 0, 0, 0, 0, 10, 0, 0, 0, 0, 0, 0, 0, 0, 0, 0
    |0, 0, 0, 0, -1, 0, 0, 0, 0, 10, 0, 0, 0, 0, 0, 0, 0, 0, 0, 0
    |0, 0, 0, 0, -1, 0, 0, 0, 0, 10, 0, 0, 0, 0, 0, 0, 0, 0, 0, 0
    |0, 0, 0, 0, -1, 0, 0, 0, 0, 10, 0, 0, 0, 0, 0, 0, 0, 0, 0, 0
    |0, 0, 0, 0, -1, 0, 0, 0, 0, 10, 0, 0, 0, 0, 0, 0, 0, 0, 0, 0
    |0, 0, 0, 10, -1, 0, 0, 0, 0, 10, 0, 0, 0, 0, 0, 0, 0, 0, 0, 0
    |0, 0, 0, 10, -1, 0, 0, 0, 0, 10, 0, 0, 0, 0, 0, 0, 0, 0, 0, 0
    |0, 0, 0, 0, -1, 0, 0, 0, 0, 10, 0, 0, 0, 0, 0, 0, 0, 0, 0, 0
    |0, 0, 0, 0, -1, 0, 0, 0, 0, 10, 0, 0, 0, 0, 0, 0, 0, 0, 0, 0
    |0, 0, 0, 0, -1, 0, 0, 0, 0, 10, 0, 0, 0, 0, 0, 0, 0, 0, 0, 0
    |2, 2, 2, 0, -1, 2, 2, 2, 2, 10, 2, 2, 2, 2, 2, 2, 2, 2, 2, 2
    |0, 0, 0, 0, -1, 0, 0, 0, 0, 10, 0, 0, 0, 0, 0, 0, 0, 0, 0, 0|];
EventRoomConstraints = [|-1, -1, -1, -1, -1, 0, 0, -1
    |-1, -1, -1, -1, -1, -1, -1, 0
    |-1, -1, -1, -1, -1, 0, 0, -1
    |-1, -1, -1, -1, -1, -1, -1, 0
    |-1, -1, -1, -1, -1, 0, 0, -1
    |-1, -1, -1, -1, -1, -1, -1, 0
    |0, 0, 0, -1, -1, -1, -1, -1
    |0, 0, 0, -1, -1, -1, -1, -1
    |-1, -1, -1, -1, -1, 0, 0, -1
    |-1, -1, -1, -1, -1, 0, 0, -1
    |0, 0, 0, 0, 0, -1, -1, -1
    |0, 0, 0, 0, 0, -1, -1, -1
    |0, 0, 0, 0, 0, -1, -1, -1
    |0, 0, 0, 0, 0, -1, -1, -1
    |-1, -1, -1, -1, -1, -1, -1, 0|];
RoomPeriodConstraints = [|0, 0, 0, 0, 0, 0, 0, 0, 0, 0, 0, 0, 0, 0, 0, 0, 0, 0, 0, -1
    |0, 0, 0, 0, 0, 0, 0, 0, 0, 0, 0, 0, 0, 0, 0, 0, 0, 0, 0, 0
    |0, 0, 0, 0, 0, 0, 0, 0, 0, 0, 0, 0, 0, 0, 0, 0, 0, 0, 0, 0
    |0, 0, 0, 0, 0, 0, 0, 0, 0, 0, 0, 0, 0, 0, 0, 0, 0, 0, 0, 0
    |0, 0, 0, 0, 0, 0, 0, 0, 0, 0, 0, 0, 0, 0, 0, 0, 0, 0, 0, 0
    |0, 0, 0, 0, 0, 0, 0, 0, 0, 0, 0, 0, 0, 0, 0, 0, 0, 0, 0, -1
    |0, 0, 0, 0, 0, 0, 0, 0, 0, 0, 0, 0, 0, 0, 0, 0, 0, 0, 0, -1
    |0, 0, 0, 0, 0, 0, 0, 0, 0, 0, 0, 0, 0, 0, 0, 0, 0, 0, 0, 0|];
RoomsetOverlap = [|1, 0, 0, 0, 0, 1, 1, 0
    |0, 1, 0, 0, 0, 1, 0, 0
    |0, 0, 1, 0, 0, 0, 1, 0
    |0, 0, 0, 1, 0, 0, 0, 0
    |0, 0, 0, 0, 1, 0, 0, 0
    |1, 1, 0, 0, 0, 1, 1, 0
    |1, 0, 1, 0, 0, 1, 1, 0
    |0, 0, 0, 0, 0, 0, 0, 0|];